Route #1: 53 58 13 95 94
Route #2: 2 57 15 43 42 100 98 37 92 97 87
Route #3: 14 38 44 91 85 61
Route #4: 59 86 16 99
Route #5: 60 83 5 84 17 45 8 82 7 88
Route #6: 31 62 66 20 30 70
Route #7: 10 32 90 63 64 11 19
Route #8: 48 47 49 36 46 18
Route #9: 52 89 6 96 93 73 21 40
Route #10: 72 74 75 23 56 4
Route #11: 41 22 67 39 26
Route #12: 12 80 68 29 24 25 55 54
Route #13: 77 3 79 81 9 33
Route #14: 69 1 51 71 65 35 34 78 50 76
Route #15: 27 28
Cost 1235
